int: m;
m = 3;
array[1 .. m] of int: Capacities;
Capacities = [ 5, 10, 15 ];
int: n;
n = 5;
array[1 .. n] of var 0 .. 1: x;
array[1 .. n, 1 .. m] of int: Weights;
Weights = 
  array2d(1 .. 5, 1 .. 3, [ 2, 3, 2, 1, 4, 4, 1, 2, 5, 3, 2, 3, 1, 3, 5 ]);
array[1 .. n] of int: Profits;
Profits = [ 5, 6, 3, 7, 4 ];
output 
  [ "multidimknapsack_simple " ] ++ 
  [ show(x[i]) ++ if i = n then "\n" else " " endif | i in 1 .. n ];
